(set-logic SLHV)
(declare-hvar emp IntHeap)
(declare-locvar nil IntLoc)
(declare-datatype pt_record_0 ((Pt_R_0 (loc IntLoc))))
(declare-datatype pt_record_1 ((Pt_R_1 (data Int))))
(declare-const d36 Int)
(declare-locvar l25 IntLoc)
(declare-hvar ah9 IntHeap)
(declare-hvar AH_2 IntHeap)
(declare-const d35 Int)
(declare-locvar l23 IntLoc)
(declare-hvar h9 IntHeap)
(declare-hvar H_2 IntHeap)
(declare-locvar l24 IntLoc)
(declare-const loc_2 Int)
(declare-const $r_main0_1 Int)
(declare-const $r_main0_2 Int)
(declare-const $i7_main0_1 Int)
(declare-const $i7_main0_2 Int)
(declare-const $i6_main0_1 Int)
(declare-const $i6_main0_2 Int)
(declare-const $i5_main0_1 Int)
(declare-const $i5_main0_2 Int)
(declare-const $i2_main0_1 Int)
(declare-const $i2_main0_2 Int)
(declare-const $i1_main0_1 Int)
(declare-const $i1_main0_2 Int)
(declare-const $i15_main0_1 Int)
(declare-const $i15_main0_2 Int)
(declare-const $i14_main0_1 Int)
(declare-const $i14_main0_2 Int)
(declare-const $i0_main0_1 Int)
(declare-const $i0_main0_2 Int)
(declare-const $M.0_1 Int)
(declare-const $M.0_2 Int)
(declare-locvar $p9_main0_1 IntLoc)
(declare-locvar $p9_main0_2 IntLoc)
(declare-locvar $p8_main0_1 IntLoc)
(declare-locvar $p8_main0_2 IntLoc)
(declare-locvar $p4_main0_1 IntLoc)
(declare-locvar $p4_main0_2 IntLoc)
(declare-locvar $p3_main0_1 IntLoc)
(declare-locvar $p3_main0_2 IntLoc)
(declare-locvar $p20_main0_1 IntLoc)
(declare-locvar $p20_main0_2 IntLoc)
(declare-locvar $p19_main0_1 IntLoc)
(declare-locvar $p19_main0_2 IntLoc)
(declare-locvar $p18_main0_1 IntLoc)
(declare-locvar $p18_main0_2 IntLoc)
(declare-locvar $p17_main0_1 IntLoc)
(declare-locvar $p17_main0_2 IntLoc)
(declare-locvar $p16_main0_1 IntLoc)
(declare-locvar $p16_main0_2 IntLoc)
(declare-locvar $p13_main0_1 IntLoc)
(declare-locvar $p13_main0_2 IntLoc)
(declare-locvar $p12_main0_1 IntLoc)
(declare-locvar $p12_main0_2 IntLoc)
(declare-locvar $p11_main0_1 IntLoc)
(declare-locvar $p11_main0_2 IntLoc)
(declare-locvar $p10_main0_1 IntLoc)
(declare-locvar $p10_main0_2 IntLoc)
(declare-locvar $M.2_1 IntLoc)
(declare-locvar $M.2_2 IntLoc)
(declare-locvar $M.1_1 IntLoc)
(declare-locvar $M.1_2 IntLoc)
(declare-hvar H7_2 IntHeap)
(declare-hvar AH6_2 IntHeap)
(declare-locvar $p25_main01_2 IntLoc)
(declare-locvar $p25_main0_2 IntLoc)
(declare-locvar $p24_main01_2 IntLoc)
(declare-locvar $p24_main0_2 IntLoc)
(declare-locvar $p23_main01_2 IntLoc)
(declare-locvar $p23_main0_2 IntLoc)
(declare-locvar $p22_main01_2 IntLoc)
(declare-locvar $p22_main0_2 IntLoc)
(declare-locvar $p21_main01_2 IntLoc)
(declare-locvar $p21_main0_2 IntLoc)
(declare-hvar h8_2 IntHeap)
(declare-locvar l22_2 IntLoc)
(declare-const d33_2 Int)
(declare-hvar H6_2 IntHeap)
(declare-const d29_2 Int)
(declare-locvar l19_2 IntLoc)
(declare-const d32_2 Int)
(declare-locvar l21_2 IntLoc)
(declare-const d31_2 Int)
(declare-locvar l20_2 IntLoc)
(declare-const d30_2 Int)
(declare-hvar ah7 IntHeap)
(declare-hvar AH5_2 IntHeap)
(declare-hvar h7_2 IntHeap)
(declare-locvar l18_2 IntLoc)
(declare-const d27_2 Int)
(declare-hvar H_1 IntHeap)
(declare-const d23_2 Int)
(declare-locvar l15_2 IntLoc)
(declare-const d26_2 Int)
(declare-locvar l17_2 IntLoc)
(declare-const d25_2 Int)
(declare-locvar l16_2 IntLoc)
(declare-const d24_2 Int)
(declare-hvar ah5 IntHeap)
(declare-hvar AH_1 IntHeap)
(declare-const loc_1 Int)
(declare-locvar $p25_main0_1 IntLoc)
(declare-locvar $p24_main0_1 IntLoc)
(declare-locvar $p23_main0_1 IntLoc)
(declare-locvar $p22_main0_1 IntLoc)
(declare-locvar $p21_main0_1 IntLoc)
(declare-hvar H5_2 IntHeap)
(declare-hvar AH4_2 IntHeap)
(declare-locvar $p20_main01_2 IntLoc)
(declare-locvar $p19_main01_2 IntLoc)
(declare-locvar $p18_main01_2 IntLoc)
(declare-locvar $p17_main01_2 IntLoc)
(declare-locvar $p16_main01_2 IntLoc)
(declare-hvar h6_2 IntHeap)
(declare-locvar l14_2 IntLoc)
(declare-const d21_2 Int)
(declare-hvar H4_2 IntHeap)
(declare-const d17_2 Int)
(declare-locvar l11_2 IntLoc)
(declare-const d20_2 Int)
(declare-locvar l13_2 IntLoc)
(declare-const d19_2 Int)
(declare-locvar l12_2 IntLoc)
(declare-const d18_2 Int)
(declare-hvar ah3 IntHeap)
(declare-hvar AH3_2 IntHeap)
(declare-hvar h5_2 IntHeap)
(declare-locvar l10_2 IntLoc)
(declare-const d15_2 Int)
(declare-const d11_2 Int)
(declare-locvar l7_2 IntLoc)
(declare-const d14_2 Int)
(declare-locvar l9_2 IntLoc)
(declare-const d13_2 Int)
(declare-locvar l8_2 IntLoc)
(declare-const d12_2 Int)
(declare-hvar ah1 IntHeap)
(declare-const $r_main0_0 Int)
(declare-locvar $p25_main0_0 IntLoc)
(declare-locvar $p24_main0_0 IntLoc)
(declare-locvar $p23_main0_0 IntLoc)
(declare-locvar $p22_main0_0 IntLoc)
(declare-locvar $p21_main0_0 IntLoc)
(declare-locvar $p20_main0_0 IntLoc)
(declare-locvar $p19_main0_0 IntLoc)
(declare-locvar $p18_main0_0 IntLoc)
(declare-locvar $p17_main0_0 IntLoc)
(declare-locvar $p16_main0_0 IntLoc)
(declare-hvar H3_1 IntHeap)
(declare-hvar AH2_1 IntHeap)
(declare-locvar $p9_main01_1 IntLoc)
(declare-locvar $p8_main01_1 IntLoc)
(declare-locvar $p4_main01_1 IntLoc)
(declare-locvar $p3_main01_1 IntLoc)
(declare-locvar $p13_main01_1 IntLoc)
(declare-locvar $p12_main01_1 IntLoc)
(declare-locvar $p11_main01_1 IntLoc)
(declare-locvar $p10_main01_1 IntLoc)
(declare-const $i7_main01_1 Int)
(declare-const $i6_main01_1 Int)
(declare-const $i5_main01_1 Int)
(declare-const $i2_main01_1 Int)
(declare-const $i1_main01_1 Int)
(declare-const $i15_main01_1 Int)
(declare-const $i14_main01_1 Int)
(declare-const $i0_main01_1 Int)
(declare-locvar $M.23_1 IntLoc)
(declare-locvar $M.12_1 IntLoc)
(declare-const $M.02_1 Int)
(declare-const d9_1 Int)
(declare-hvar h3_1 IntHeap)
(declare-hvar h1_1 IntHeap)
(declare-const d7_1 Int)
(declare-hvar H2_1 IntHeap)
(declare-locvar $M.22_1 IntLoc)
(declare-locvar l4_1 IntLoc)
(declare-hvar AH1_1 IntHeap)
(declare-locvar l5_1 IntLoc)
(declare-locvar l6_1 IntLoc)
(declare-const d6_1 Int)
(declare-const d5_1 Int)
(declare-const d4_1 Int)
(declare-hvar H1_1 IntHeap)
(declare-locvar l1_1 IntLoc)
(declare-hvar AH_0 IntHeap)
(declare-locvar l2_1 IntLoc)
(declare-locvar l3_1 IntLoc)
(declare-const d3_1 Int)
(declare-const d2_1 Int)
(declare-const d1_1 Int)
(declare-hvar H_0 IntHeap)
(declare-locvar $M.21_1 IntLoc)
(declare-locvar $M.11_1 IntLoc)
(declare-const $M.01_1 Int)
(declare-const loc_0 Int)
(assert
 (let (($x1565 (or (= H_2 (uplus h9 (pt l23 (Pt_R_0 l24)))) (= H_2 (uplus h9 (pt l23 (Pt_R_1 d35)))))))
 (let (($x1574 (and (and false $x1565) (= AH_2 (uplus ah9 (pt l25 (Pt_R_1 d36)))))))
 (let (($x1184 (= loc_2 3)))
 (let (($x1177 (= $r_main0_2 $r_main0_1)))
 (let (($x1174 (= $i7_main0_2 $i7_main0_1)))
 (let (($x1171 (= $i6_main0_2 $i6_main0_1)))
 (let (($x1168 (= $i5_main0_2 $i5_main0_1)))
 (let (($x1165 (= $i2_main0_2 $i2_main0_1)))
 (let (($x1162 (= $i1_main0_2 $i1_main0_1)))
 (let (($x1159 (= $i15_main0_2 $i15_main0_1)))
 (let (($x1156 (= $i14_main0_2 $i14_main0_1)))
 (let (($x1153 (= $i0_main0_2 $i0_main0_1)))
 (let (($x1163 (and (and (and (and (and true (= $M.0_2 $M.0_1)) $x1153) $x1156) $x1159) $x1162)))
 (let (($x1178 (and (and (and (and (and $x1163 $x1165) $x1168) $x1171) $x1174) $x1177)))
 (let (($x1146 (= $p9_main0_2 $p9_main0_1)))
 (let (($x1143 (= $p8_main0_2 $p8_main0_1)))
 (let (($x1140 (= $p4_main0_2 $p4_main0_1)))
 (let (($x1137 (= $p3_main0_2 $p3_main0_1)))
 (let (($x1326 (= $p20_main0_2 $p20_main0_1)))
 (let (($x1324 (= $p19_main0_2 $p19_main0_1)))
 (let (($x1322 (= $p18_main0_2 $p18_main0_1)))
 (let (($x1320 (= $p17_main0_2 $p17_main0_1)))
 (let (($x1318 (= $p16_main0_2 $p16_main0_1)))
 (let (($x1119 (= $p13_main0_2 $p13_main0_1)))
 (let (($x1116 (= $p12_main0_2 $p12_main0_1)))
 (let (($x1113 (= $p11_main0_2 $p11_main0_1)))
 (let (($x1110 (= $p10_main0_2 $p10_main0_1)))
 (let (($x1111 (and (and (and true (= $M.1_2 $M.1_1)) (= $M.2_2 $M.2_1)) $x1110)))
 (let (($x1120 (and (and (and $x1111 $x1113) $x1116) $x1119)))
 (let (($x1328 (and (and (and (and (and (and $x1120 $x1318) $x1320) $x1322) $x1324) $x1326) $x1137)))
 (let (($x1331 (and (and (and $x1328 $x1140) $x1143) $x1146)))
 (let (($x1314 (= H_2 H7_2)))
 (let (($x1312 (= AH_2 AH6_2)))
 (let (($x1310 (= $p25_main0_2 $p25_main01_2)))
 (let (($x1308 (= $p24_main0_2 $p24_main01_2)))
 (let (($x1306 (= $p23_main0_2 $p23_main01_2)))
 (let (($x1304 (= $p22_main0_2 $p22_main01_2)))
 (let (($x1303 (= $p21_main0_2 $p21_main01_2)))
 (let (($x1315 (and (and (and (and (and (and $x1303 $x1304) $x1306) $x1308) $x1310) $x1312) $x1314)))
 (let (($x1316 (and $x1315 true)))
 (let (($x1218 (= H7_2 h8_2)))
 (let (($x1219 (= $p25_main01_2 l22_2)))
 (let (($x1223 (= H6_2 (uplus h8_2 (pt l22_2 (Pt_R_1 d33_2))))))
 (let (($x1226 (= d29_2 1)))
 (let (($x1228 (= $p25_main01_2 l19_2)))
 (let ((?x1236 (uplus (uplus (pt l19_2 (Pt_R_1 d30_2)) (pt l20_2 (Pt_R_1 d31_2))) (pt l21_2 (Pt_R_1 d32_2)))))
 (let (($x1238 (= H6_2 (uplus h8_2 ?x1236))))
 (let (($x1241 (= d29_2 2)))
 (let (($x1243 (and (=> $x1241 (and (and $x1238 $x1228) $x1218)) (=> $x1226 (and (and $x1223 $x1219) $x1218)))))
 (let (($x1244 (= AH6_2 ah7)))
 (let (($x1248 (= AH5_2 (uplus ah7 (pt $p25_main01_2 (Pt_R_1 d29_2))))))
 (let (($x1250 (and (and $x1248 $x1244) $x1243)))
 (let (($x1252 (= $p25_main01_2 $p24_main01_2)))
 (let (($x1255 (= $p24_main01_2 (locadd $p23_main01_2 (- 1)))))
 (let (($x1257 (= $p23_main01_2 $M.2_1)))
 (let (($x1259 (= H6_2 h7_2)))
 (let (($x1260 (= $p22_main01_2 l18_2)))
 (let (($x1264 (= H_1 (uplus h7_2 (pt l18_2 (Pt_R_1 d27_2))))))
 (let (($x1267 (= d23_2 1)))
 (let (($x1269 (= $p22_main01_2 l15_2)))
 (let ((?x1277 (uplus (uplus (pt l15_2 (Pt_R_1 d24_2)) (pt l16_2 (Pt_R_1 d25_2))) (pt l17_2 (Pt_R_1 d26_2)))))
 (let (($x1279 (= H_1 (uplus h7_2 ?x1277))))
 (let (($x1282 (= d23_2 2)))
 (let (($x1284 (and (=> $x1282 (and (and $x1279 $x1269) $x1259)) (=> $x1267 (and (and $x1264 $x1260) $x1259)))))
 (let (($x1285 (= AH5_2 ah5)))
 (let (($x1289 (= AH_1 (uplus ah5 (pt $p22_main01_2 (Pt_R_1 d23_2))))))
 (let (($x1291 (and (and $x1289 $x1285) $x1284)))
 (let (($x1541 (and (and (= $p21_main01_2 $M.1_1) (= $p22_main01_2 $p21_main01_2)) $x1291)))
 (let (($x1547 (and (and (and (and (and (and $x1541 $x1257) $x1255) $x1252) $x1250) $x1316) $x1331)))
 (let (($x961 (= loc_1 2)))
 (let (($x1217 (and $x961 (not (= $i15_main0_1 1)))))
 (let (($x1134 (= $p25_main0_2 $p25_main0_1)))
 (let (($x1131 (= $p24_main0_2 $p24_main0_1)))
 (let (($x1128 (= $p23_main0_2 $p23_main0_1)))
 (let (($x1125 (= $p22_main0_2 $p22_main0_1)))
 (let (($x1132 (and (and (and (and $x1120 (= $p21_main0_2 $p21_main0_1)) $x1125) $x1128) $x1131)))
 (let (($x1147 (and (and (and (and (and $x1132 $x1134) $x1137) $x1140) $x1143) $x1146)))
 (let (($x1099 (= H_2 H5_2)))
 (let (($x1096 (= AH_2 AH4_2)))
 (let (($x1093 (= $p20_main0_2 $p20_main01_2)))
 (let (($x1090 (= $p19_main0_2 $p19_main01_2)))
 (let (($x1087 (= $p18_main0_2 $p18_main01_2)))
 (let (($x1084 (= $p17_main0_2 $p17_main01_2)))
 (let (($x1082 (= $p16_main0_2 $p16_main01_2)))
 (let (($x1100 (and (and (and (and (and (and $x1082 $x1084) $x1087) $x1090) $x1093) $x1096) $x1099)))
 (let (($x1101 (and $x1100 true)))
 (let (($x996 (= H5_2 h6_2)))
 (let (($x997 (= $p20_main01_2 l14_2)))
 (let (($x1001 (= H4_2 (uplus h6_2 (pt l14_2 (Pt_R_1 d21_2))))))
 (let (($x1004 (= d17_2 1)))
 (let (($x1006 (= $p20_main01_2 l11_2)))
 (let ((?x1014 (uplus (uplus (pt l11_2 (Pt_R_1 d18_2)) (pt l12_2 (Pt_R_1 d19_2))) (pt l13_2 (Pt_R_1 d20_2)))))
 (let (($x1016 (= H4_2 (uplus h6_2 ?x1014))))
 (let (($x1019 (= d17_2 2)))
 (let (($x1021 (and (=> $x1019 (and (and $x1016 $x1006) $x996)) (=> $x1004 (and (and $x1001 $x997) $x996)))))
 (let (($x1022 (= AH4_2 ah3)))
 (let (($x1026 (= AH3_2 (uplus ah3 (pt $p20_main01_2 (Pt_R_1 d17_2))))))
 (let (($x1028 (and (and $x1026 $x1022) $x1021)))
 (let (($x1030 (= $p20_main01_2 $p19_main01_2)))
 (let (($x1033 (= $p19_main01_2 (locadd $p18_main01_2 (- 1)))))
 (let (($x1035 (= $p18_main01_2 $M.2_1)))
 (let (($x1037 (= H4_2 h5_2)))
 (let (($x1038 (= $p17_main01_2 l10_2)))
 (let (($x1042 (= H_1 (uplus h5_2 (pt l10_2 (Pt_R_1 d15_2))))))
 (let (($x1045 (= d11_2 1)))
 (let (($x1047 (= $p17_main01_2 l7_2)))
 (let ((?x1055 (uplus (uplus (pt l7_2 (Pt_R_1 d12_2)) (pt l8_2 (Pt_R_1 d13_2))) (pt l9_2 (Pt_R_1 d14_2)))))
 (let (($x1057 (= H_1 (uplus h5_2 ?x1055))))
 (let (($x1060 (= d11_2 2)))
 (let (($x1062 (and (=> $x1060 (and (and $x1057 $x1047) $x1037)) (=> $x1045 (and (and $x1042 $x1038) $x1037)))))
 (let (($x1063 (= AH3_2 ah1)))
 (let (($x1067 (= AH_1 (uplus ah1 (pt $p17_main01_2 (Pt_R_1 d11_2))))))
 (let (($x1069 (and (and $x1067 $x1063) $x1062)))
 (let (($x1530 (and (and (= $p16_main01_2 $M.1_1) (= $p17_main01_2 $p16_main01_2)) $x1069)))
 (let (($x1536 (and (and (and (and (and (and $x1530 $x1035) $x1033) $x1030) $x1028) $x1101) $x1147)))
 (let (($x994 (= $i15_main0_1 1)))
 (let (($x995 (and $x961 $x994)))
 (let (($x1551 (and (=> $x995 (and (and $x1536 $x1178) $x1184)) (=> $x1217 (and (and $x1547 $x1178) $x1184)))))
 (let (($x957 (= $r_main0_1 $r_main0_0)))
 (let (($x958 (and true $x957)))
 (let (($x952 (= $p25_main0_1 $p25_main0_0)))
 (let (($x948 (= $p24_main0_1 $p24_main0_0)))
 (let (($x944 (= $p23_main0_1 $p23_main0_0)))
 (let (($x940 (= $p22_main0_1 $p22_main0_0)))
 (let (($x936 (= $p21_main0_1 $p21_main0_0)))
 (let (($x932 (= $p20_main0_1 $p20_main0_0)))
 (let (($x928 (= $p19_main0_1 $p19_main0_0)))
 (let (($x924 (= $p18_main0_1 $p18_main0_0)))
 (let (($x920 (= $p17_main0_1 $p17_main0_0)))
 (let (($x929 (and (and (and (and true (= $p16_main0_1 $p16_main0_0)) $x920) $x924) $x928)))
 (let (($x953 (and (and (and (and (and (and $x929 $x932) $x936) $x940) $x944) $x948) $x952)))
 (let (($x908 (= H_1 H3_1)))
 (let (($x905 (= AH_1 AH2_1)))
 (let (($x902 (= $p9_main0_1 $p9_main01_1)))
 (let (($x899 (= $p8_main0_1 $p8_main01_1)))
 (let (($x896 (= $p4_main0_1 $p4_main01_1)))
 (let (($x893 (= $p3_main0_1 $p3_main01_1)))
 (let (($x890 (= $p13_main0_1 $p13_main01_1)))
 (let (($x887 (= $p12_main0_1 $p12_main01_1)))
 (let (($x884 (= $p11_main0_1 $p11_main01_1)))
 (let (($x881 (= $p10_main0_1 $p10_main01_1)))
 (let (($x878 (= $i7_main0_1 $i7_main01_1)))
 (let (($x875 (= $i6_main0_1 $i6_main01_1)))
 (let (($x872 (= $i5_main0_1 $i5_main01_1)))
 (let (($x869 (= $i2_main0_1 $i2_main01_1)))
 (let (($x866 (= $i1_main0_1 $i1_main01_1)))
 (let (($x863 (= $i15_main0_1 $i15_main01_1)))
 (let (($x860 (= $i14_main0_1 $i14_main01_1)))
 (let (($x857 (= $i0_main0_1 $i0_main01_1)))
 (let (($x854 (= $M.2_1 $M.23_1)))
 (let (($x858 (and (and (and (= $M.0_1 $M.02_1) (= $M.1_1 $M.12_1)) $x854) $x857)))
 (let (($x876 (and (and (and (and (and (and $x858 $x860) $x863) $x866) $x869) $x872) $x875)))
 (let (($x894 (and (and (and (and (and (and $x876 $x878) $x881) $x884) $x887) $x890) $x893)))
 (let (($x909 (and (and (and (and (and $x894 $x896) $x899) $x902) $x905) $x908)))
 (let (($x1390 (and $x909 true)))
 (let (($x699 (or (and (and (distinct $i14_main01_1 0) true) (= $i15_main01_1 1)) (and (not (and (distinct $i14_main01_1 0) true)) (= $i15_main01_1 0)))))
 (let (($x708 (and (= H3_1 (uplus h3_1 (pt $p13_main01_1 (Pt_R_1 d9_1)))) (= $i14_main01_1 d9_1))))
 (let (($x720 (= $p13_main01_1 (locadd $p12_main01_1 (- 2)))))
 (let (($x722 (= $p12_main01_1 $M.23_1)))
 (let (($x733 (and (= H2_1 (uplus h1_1 (pt $p10_main01_1 (Pt_R_1 d7_1)))) (= H3_1 (uplus h1_1 (pt $p10_main01_1 (Pt_R_1 0)))))))
 (let (($x744 (= $M.23_1 $p11_main01_1)))
 (let (($x747 (= $p11_main01_1 (locadd $p10_main01_1 1))))
 (let (($x749 (= $p10_main01_1 $M.22_1)))
 (let (($x751 (= $M.22_1 $p8_main01_1)))
 (let (($x753 (= $p9_main01_1 $p8_main01_1)))
 (let (($x757 (= AH2_1 (uplus AH1_1 (pt l4_1 (Pt_R_1 3))))))
 (let (($x758 (= $p8_main01_1 l4_1)))
 (let (($x760 (= l6_1 (locadd l5_1 1))))
 (let (($x762 (= l5_1 (locadd l4_1 1))))
 (let ((?x771 (uplus (uplus (pt l4_1 (Pt_R_1 d4_1)) (pt l5_1 (Pt_R_1 d5_1))) (pt l6_1 (Pt_R_1 d6_1)))))
 (let (($x773 (= H2_1 (uplus H1_1 ?x771))))
 (let (($x776 (and (and (and $x773 (and $x762 $x760)) $x758) $x757)))
 (let (($x778 (= $i7_main01_1 12)))
 (let (($x780 (= $i6_main01_1 3)))
 (let (($x782 (= $i5_main01_1 $M.02_1)))
 (let (($x784 (= $M.12_1 $p3_main01_1)))
 (let (($x786 (= $p4_main01_1 $p3_main01_1)))
 (let (($x790 (= AH1_1 (uplus AH_0 (pt l1_1 (Pt_R_1 2))))))
 (let (($x791 (= $p3_main01_1 l1_1)))
 (let (($x793 (= l3_1 (locadd l2_1 1))))
 (let (($x795 (= l2_1 (locadd l1_1 1))))
 (let ((?x804 (uplus (uplus (pt l1_1 (Pt_R_1 d1_1)) (pt l2_1 (Pt_R_1 d2_1))) (pt l3_1 (Pt_R_1 d3_1)))))
 (let (($x806 (= H1_1 (uplus H_0 ?x804))))
 (let (($x809 (and (and (and $x806 (and $x795 $x793)) $x791) $x790)))
 (let (($x811 (= $i2_main01_1 12)))
 (let (($x813 (= $i1_main01_1 3)))
 (let (($x815 (= $i0_main01_1 $M.02_1)))
 (let (($x817 (= $M.02_1 3)))
 (let (($x819 (= $M.21_1 nil)))
 (let (($x1503 (and (and (and (and (= $M.01_1 0) (= $M.11_1 nil)) $x819) $x817) $x815)))
 (let (($x1509 (and (and (and (and (and (and $x1503 $x813) $x811) $x809) $x786) $x784) $x782)))
 (let (($x1515 (and (and (and (and (and (and $x1509 $x780) $x778) $x776) $x753) $x751) $x749)))
 (let (($x1521 (and (and (and (and (and (and $x1515 $x747) $x744) $x733) $x722) $x720) $x708)))
 (let (($x638 (= loc_0 1)))
 (let (($x1527 (=> $x638 (and (and (and (and (and $x1521 $x699) $x1390) $x953) $x958) $x961))))
 (let (($x640 (and (and (= H_0 emp) (= AH_0 emp)) $x638)))
 (and (and (and $x640 $x1527) $x1551) $x1574))))))))))))))))))))))))))))))))))))))))))))))))))))))))))))))))))))))))))))))))))))))))))))))))))))))))))))))))))))))))))))))))))))))))))))))))))))))))))))))))))))))))))))))))))))))))))))))))))))))
(check-sat)
